p tw 1720 25801 7 
1 8 
1 201 
2 9 
2 10 
2 202 
3 7 
3 10 
3 1541 
4 8 
4 9 
4 1542 
5 7 
5 9 
5 1641 
6 8 
6 10 
6 1642 
11 17 
11 18 
11 531 
12 19 
12 20 
12 532 
13 17 
13 20 
13 1351 
14 18 
14 19 
14 1352 
15 17 
15 19 
15 1481 
16 18 
16 20 
16 1482 
21 27 
21 28 
21 41 
22 29 
22 30 
22 42 
23 27 
23 30 
23 261 
24 28 
24 29 
24 262 
25 27 
25 29 
25 1501 
26 28 
26 30 
26 1502 
31 37 
31 38 
31 121 
32 39 
32 40 
32 122 
33 37 
33 40 
33 281 
34 38 
34 39 
34 282 
35 37 
35 39 
35 821 
36 38 
36 40 
36 822 
41 47 
41 48 
42 49 
42 50 
43 47 
43 50 
43 701 
44 48 
44 49 
44 702 
45 47 
45 49 
45 1241 
46 48 
46 50 
46 1242 
51 57 
51 58 
51 1401 
52 59 
52 60 
52 1402 
53 57 
53 60 
53 1661 
54 58 
54 59 
54 1662 
55 57 
55 59 
55 1671 
56 58 
56 60 
56 1672 
61 67 
61 68 
61 741 
62 69 
62 70 
62 742 
63 67 
63 70 
63 841 
64 68 
64 69 
64 842 
65 67 
65 69 
65 1571 
66 68 
66 70 
66 1572 
71 77 
71 78 
71 321 
72 79 
72 80 
72 322 
73 77 
73 80 
73 411 
74 78 
74 79 
74 412 
75 77 
75 79 
75 1701 
76 78 
76 80 
76 1702 
81 87 
81 88 
81 123 
82 89 
82 90 
82 124 
83 87 
83 90 
83 171 
84 88 
84 89 
84 172 
85 87 
85 89 
85 561 
86 88 
86 90 
86 562 
91 97 
91 98 
91 521 
92 99 
92 100 
92 522 
93 97 
93 100 
93 781 
94 98 
94 99 
94 782 
95 97 
95 99 
95 1291 
96 98 
96 100 
96 1292 
101 107 
101 108 
101 181 
102 109 
102 110 
102 182 
103 107 
103 110 
103 711 
104 108 
104 109 
104 712 
105 107 
105 109 
105 881 
106 108 
106 110 
106 882 
111 117 
111 118 
111 511 
112 119 
112 120 
112 512 
113 117 
113 120 
113 771 
114 118 
114 119 
114 772 
115 117 
115 119 
115 1271 
116 118 
116 120 
116 1272 
121 127 
121 128 
122 129 
122 130 
123 127 
123 130 
124 128 
124 129 
125 127 
125 129 
125 1631 
126 128 
126 130 
126 1632 
131 137 
131 138 
131 721 
132 139 
132 140 
132 722 
133 137 
133 140 
133 801 
134 138 
134 139 
134 802 
135 137 
135 139 
135 1273 
136 138 
136 140 
136 1274 
141 147 
141 148 
141 203 
142 149 
142 150 
142 204 
143 147 
143 150 
143 611 
144 148 
144 149 
144 612 
145 147 
145 149 
145 1381 
146 148 
146 150 
146 1382 
151 157 
151 158 
151 323 
152 159 
152 160 
152 324 
153 157 
153 160 
153 1121 
154 158 
154 159 
154 1122 
155 157 
155 159 
155 1581 
156 158 
156 160 
156 1582 
161 167 
161 168 
161 1261 
162 169 
162 170 
162 1262 
163 167 
163 170 
163 1583 
164 168 
164 169 
164 1584 
165 167 
165 169 
165 1673 
166 168 
166 170 
166 1674 
171 177 
171 178 
172 179 
172 180 
173 177 
173 180 
173 951 
174 178 
174 179 
174 952 
175 177 
175 179 
175 1131 
176 178 
176 180 
176 1132 
181 187 
181 188 
182 189 
182 190 
183 187 
183 190 
183 911 
184 188 
184 189 
184 912 
185 187 
185 189 
185 921 
186 188 
186 190 
186 922 
191 197 
191 198 
191 341 
192 199 
192 200 
192 342 
193 197 
193 200 
193 571 
194 198 
194 199 
194 572 
195 197 
195 199 
195 1461 
196 198 
196 200 
196 1462 
201 207 
201 208 
202 209 
202 210 
203 207 
203 210 
204 208 
204 209 
205 207 
205 209 
205 251 
206 208 
206 210 
206 252 
211 217 
211 218 
211 1111 
212 219 
212 220 
212 1112 
213 217 
213 220 
213 1161 
214 218 
214 219 
214 1162 
215 217 
215 219 
215 1281 
216 218 
216 220 
216 1282 
221 227 
221 228 
221 631 
222 229 
222 230 
222 632 
223 227 
223 230 
223 1341 
224 228 
224 229 
224 1342 
225 227 
225 229 
225 1361 
226 228 
226 230 
226 1362 
231 237 
231 238 
231 1301 
232 239 
232 240 
232 1302 
233 237 
233 240 
233 1585 
234 238 
234 239 
234 1586 
235 237 
235 239 
235 1675 
236 238 
236 240 
236 1676 
241 247 
241 248 
241 591 
242 249 
242 250 
242 592 
243 247 
243 250 
243 691 
244 248 
244 249 
244 692 
245 247 
245 249 
245 861 
246 248 
246 250 
246 862 
251 257 
251 258 
252 259 
252 260 
253 257 
253 260 
253 471 
254 258 
254 259 
254 472 
255 257 
255 259 
255 1391 
256 258 
256 260 
256 1392 
261 267 
261 268 
262 269 
262 270 
263 267 
263 270 
263 1061 
264 268 
264 269 
264 1062 
265 267 
265 269 
265 1421 
266 268 
266 270 
266 1422 
271 277 
271 278 
271 863 
272 279 
272 280 
272 864 
273 277 
273 280 
273 901 
274 278 
274 279 
274 902 
275 277 
275 279 
275 1573 
276 278 
276 280 
276 1574 
281 287 
281 288 
282 289 
282 290 
283 287 
283 290 
283 1151 
284 288 
284 289 
284 1152 
285 287 
285 289 
285 1531 
286 288 
286 290 
286 1532 
291 297 
291 298 
291 871 
292 299 
292 300 
292 872 
293 297 
293 300 
293 1321 
294 298 
294 299 
294 1322 
295 297 
295 299 
295 1611 
296 298 
296 300 
296 1612 
301 307 
301 308 
301 451 
302 309 
302 310 
302 452 
303 307 
303 310 
303 1431 
304 308 
304 309 
304 1432 
305 307 
305 309 
305 1463 
306 308 
306 310 
306 1464 
311 317 
311 318 
311 491 
312 319 
312 320 
312 492 
313 317 
313 320 
313 581 
314 318 
314 319 
314 582 
315 317 
315 319 
315 941 
316 318 
316 320 
316 942 
321 327 
321 328 
322 329 
322 330 
323 327 
323 330 
324 328 
324 329 
325 327 
325 329 
325 1201 
326 328 
326 330 
326 1202 
331 337 
331 338 
331 413 
332 339 
332 340 
332 414 
333 337 
333 340 
333 523 
334 338 
334 339 
334 524 
335 337 
335 339 
335 641 
336 338 
336 340 
336 642 
341 347 
341 348 
342 349 
342 350 
343 347 
343 350 
343 1423 
344 348 
344 349 
344 1424 
345 347 
345 349 
345 1471 
346 348 
346 350 
346 1472 
351 357 
351 358 
351 751 
352 359 
352 360 
352 752 
353 357 
353 360 
353 991 
354 358 
354 359 
354 992 
355 357 
355 359 
355 1311 
356 358 
356 360 
356 1312 
361 367 
361 368 
361 541 
362 369 
362 370 
362 542 
363 367 
363 370 
363 1211 
364 368 
364 369 
364 1212 
365 367 
365 369 
365 1313 
366 368 
366 370 
366 1314 
371 377 
371 378 
371 923 
372 379 
372 380 
372 924 
373 377 
373 380 
373 1031 
374 378 
374 379 
374 1032 
375 377 
375 379 
375 1613 
376 378 
376 380 
376 1614 
381 387 
381 388 
381 415 
382 389 
382 390 
382 416 
383 387 
383 390 
383 823 
384 388 
384 389 
384 824 
385 387 
385 389 
385 1331 
386 388 
386 390 
386 1332 
391 397 
391 398 
391 851 
392 399 
392 400 
392 852 
393 397 
393 400 
393 891 
394 398 
394 399 
394 892 
395 397 
395 399 
395 1451 
396 398 
396 400 
396 1452 
401 407 
401 408 
401 573 
402 409 
402 410 
402 574 
403 407 
403 410 
403 731 
404 408 
404 409 
404 732 
405 407 
405 409 
405 761 
406 408 
406 410 
406 762 
411 417 
411 418 
412 419 
412 420 
413 417 
413 420 
414 418 
414 419 
415 417 
415 419 
416 418 
416 420 
421 427 
421 428 
421 461 
422 429 
422 430 
422 462 
423 427 
423 430 
423 551 
424 428 
424 429 
424 552 
425 427 
425 429 
425 961 
426 428 
426 430 
426 962 
431 437 
431 438 
431 733 
432 439 
432 440 
432 734 
433 437 
433 440 
433 993 
434 438 
434 439 
434 994 
435 437 
435 439 
435 1433 
436 438 
436 440 
436 1434 
441 447 
441 448 
441 1081 
442 449 
442 450 
442 1082 
443 447 
443 450 
443 1221 
444 448 
444 449 
444 1222 
445 447 
445 449 
445 1343 
446 448 
446 450 
446 1344 
451 457 
451 458 
452 459 
452 460 
453 457 
453 460 
453 913 
454 458 
454 459 
454 914 
455 457 
455 459 
455 1403 
456 458 
456 460 
456 1404 
461 467 
461 468 
462 469 
462 470 
463 467 
463 470 
463 1465 
464 468 
464 469 
464 1466 
465 467 
465 469 
465 1575 
466 468 
466 470 
466 1576 
471 477 
471 478 
472 479 
472 480 
473 477 
473 480 
473 723 
474 478 
474 479 
474 724 
475 477 
475 479 
475 1051 
476 478 
476 480 
476 1052 
481 487 
481 488 
481 1001 
482 489 
482 490 
482 1002 
483 487 
483 490 
483 1041 
484 488 
484 489 
484 1042 
485 487 
485 489 
485 1691 
486 488 
486 490 
486 1692 
491 497 
491 498 
492 499 
492 500 
493 497 
493 500 
493 853 
494 498 
494 499 
494 854 
495 497 
495 499 
495 1453 
496 498 
496 500 
496 1454 
501 507 
501 508 
501 713 
502 509 
502 510 
502 714 
503 507 
503 510 
503 1353 
504 508 
504 509 
504 1354 
505 507 
505 509 
505 1393 
506 508 
506 510 
506 1394 
511 517 
511 518 
512 519 
512 520 
513 517 
513 520 
513 1223 
514 518 
514 519 
514 1224 
515 517 
515 519 
515 1371 
516 518 
516 520 
516 1372 
521 527 
521 528 
522 529 
522 530 
523 527 
523 530 
524 528 
524 529 
525 527 
525 529 
525 1363 
526 528 
526 530 
526 1364 
531 537 
531 538 
532 539 
532 540 
533 537 
533 540 
533 681 
534 538 
534 539 
534 682 
535 537 
535 539 
535 1123 
536 538 
536 540 
536 1124 
541 547 
541 548 
542 549 
542 550 
543 547 
543 550 
543 1071 
544 548 
544 549 
544 1072 
545 547 
545 549 
545 1213 
546 548 
546 550 
546 1214 
551 557 
551 558 
552 559 
552 560 
553 557 
553 560 
553 1021 
554 558 
554 559 
554 1022 
555 557 
555 559 
555 1521 
556 558 
556 560 
556 1522 
561 567 
561 568 
562 569 
562 570 
563 567 
563 570 
563 981 
564 568 
564 569 
564 982 
565 567 
565 569 
565 1181 
566 568 
566 570 
566 1182 
571 577 
571 578 
572 579 
572 580 
573 577 
573 580 
574 578 
574 579 
575 577 
575 579 
575 1551 
576 578 
576 580 
576 1552 
581 587 
581 588 
582 589 
582 590 
583 587 
583 590 
583 1101 
584 588 
584 589 
584 1102 
585 587 
585 589 
585 1601 
586 588 
586 590 
586 1602 
591 597 
591 598 
592 599 
592 600 
593 597 
593 600 
593 1373 
594 598 
594 599 
594 1374 
595 597 
595 599 
595 1621 
596 598 
596 600 
596 1622 
601 607 
601 608 
601 803 
602 609 
602 610 
602 804 
603 607 
603 610 
603 1073 
604 608 
604 609 
604 1074 
605 607 
605 609 
605 1681 
606 608 
606 610 
606 1682 
611 617 
611 618 
612 619 
612 620 
613 617 
613 620 
613 1141 
614 618 
614 619 
614 1142 
615 617 
615 619 
615 1651 
616 618 
616 620 
616 1652 
621 627 
621 628 
621 1033 
622 629 
622 630 
622 1034 
623 627 
623 630 
623 1411 
624 628 
624 629 
624 1412 
625 627 
625 629 
625 1591 
626 628 
626 630 
626 1592 
631 637 
631 638 
632 639 
632 640 
633 637 
633 640 
633 811 
634 638 
634 639 
634 812 
635 637 
635 639 
635 1263 
636 638 
636 640 
636 1264 
641 647 
641 648 
642 649 
642 650 
643 647 
643 650 
643 753 
644 648 
644 649 
644 754 
645 647 
645 649 
645 1171 
646 648 
646 650 
646 1172 
651 657 
651 658 
651 693 
652 659 
652 660 
652 694 
653 657 
653 660 
653 1003 
654 658 
654 659 
654 1004 
655 657 
655 659 
655 1435 
656 658 
656 660 
656 1436 
661 667 
661 668 
661 983 
662 669 
662 670 
662 984 
663 667 
663 670 
663 1053 
664 668 
664 669 
664 1054 
665 667 
665 669 
665 1323 
666 668 
666 670 
666 1324 
671 677 
671 678 
671 903 
672 679 
672 680 
672 904 
673 677 
673 680 
673 925 
674 678 
674 679 
674 926 
675 677 
675 679 
675 1561 
676 678 
676 680 
676 1562 
681 687 
681 688 
682 689 
682 690 
683 687 
683 690 
683 1441 
684 688 
684 689 
684 1442 
685 687 
685 689 
685 1663 
686 688 
686 690 
686 1664 
691 697 
691 698 
692 699 
692 700 
693 697 
693 700 
694 698 
694 699 
695 697 
695 699 
695 865 
696 698 
696 700 
696 866 
701 707 
701 708 
702 709 
702 710 
703 707 
703 710 
703 1191 
704 708 
704 709 
704 1192 
705 707 
705 709 
705 1523 
706 708 
706 710 
706 1524 
711 717 
711 718 
712 719 
712 720 
713 717 
713 720 
714 718 
714 719 
715 717 
715 719 
715 1011 
716 718 
716 720 
716 1012 
721 727 
721 728 
722 729 
722 730 
723 727 
723 730 
724 728 
724 729 
725 727 
725 729 
725 1013 
726 728 
726 730 
726 1014 
731 737 
731 738 
732 739 
732 740 
733 737 
733 740 
734 738 
734 739 
735 737 
735 739 
735 1203 
736 738 
736 740 
736 1204 
741 747 
741 748 
742 749 
742 750 
743 747 
743 750 
743 971 
744 748 
744 749 
744 972 
745 747 
745 749 
745 1091 
746 748 
746 750 
746 1092 
751 757 
751 758 
752 759 
752 760 
753 757 
753 760 
754 758 
754 759 
755 757 
755 759 
755 1643 
756 758 
756 760 
756 1644 
761 767 
761 768 
762 769 
762 770 
763 767 
763 770 
763 855 
764 768 
764 769 
764 856 
765 767 
765 769 
765 931 
766 768 
766 770 
766 932 
771 777 
771 778 
772 779 
772 780 
773 777 
773 780 
773 1075 
774 778 
774 779 
774 1076 
775 777 
775 779 
775 1703 
776 778 
776 780 
776 1704 
781 787 
781 788 
782 789 
782 790 
783 787 
783 790 
783 1243 
784 788 
784 789 
784 1244 
785 787 
785 789 
785 1511 
786 788 
786 790 
786 1512 
791 797 
791 798 
791 843 
792 799 
792 800 
792 844 
793 797 
793 800 
793 1023 
794 798 
794 799 
794 1024 
795 797 
795 799 
795 1533 
796 798 
796 800 
796 1534 
801 807 
801 808 
802 809 
802 810 
803 807 
803 810 
804 808 
804 809 
805 807 
805 809 
805 1711 
806 808 
806 810 
806 1712 
811 817 
811 818 
812 819 
812 820 
813 817 
813 820 
813 1303 
814 818 
814 819 
814 1304 
815 817 
815 819 
815 1383 
816 818 
816 820 
816 1384 
821 827 
821 828 
822 829 
822 830 
823 827 
823 830 
824 828 
824 829 
825 827 
825 829 
825 1603 
826 828 
826 830 
826 1604 
831 837 
831 838 
831 1153 
832 839 
832 840 
832 1154 
833 837 
833 840 
833 1315 
834 838 
834 839 
834 1316 
835 837 
835 839 
835 1563 
836 838 
836 840 
836 1564 
841 847 
841 848 
842 849 
842 850 
843 847 
843 850 
844 848 
844 849 
845 847 
845 849 
845 953 
846 848 
846 850 
846 954 
851 857 
851 858 
852 859 
852 860 
853 857 
853 860 
854 858 
854 859 
855 857 
855 859 
856 858 
856 860 
861 867 
861 868 
862 869 
862 870 
863 867 
863 870 
864 868 
864 869 
865 867 
865 869 
866 868 
866 870 
871 877 
871 878 
872 879 
872 880 
873 877 
873 880 
873 1483 
874 878 
874 879 
874 1484 
875 877 
875 879 
875 1553 
876 878 
876 880 
876 1554 
881 887 
881 888 
882 889 
882 890 
883 887 
883 890 
883 1251 
884 888 
884 889 
884 1252 
885 887 
885 889 
885 1485 
886 888 
886 890 
886 1486 
891 897 
891 898 
892 899 
892 900 
893 897 
893 900 
893 1293 
894 898 
894 899 
894 1294 
895 897 
895 899 
895 1543 
896 898 
896 900 
896 1544 
901 907 
901 908 
902 909 
902 910 
903 907 
903 910 
904 908 
904 909 
905 907 
905 909 
905 1653 
906 908 
906 910 
906 1654 
911 917 
911 918 
912 919 
912 920 
913 917 
913 920 
914 918 
914 919 
915 917 
915 919 
915 943 
916 918 
916 920 
916 944 
921 927 
921 928 
922 929 
922 930 
923 927 
923 930 
924 928 
924 929 
925 927 
925 929 
926 928 
926 930 
931 937 
931 938 
932 939 
932 940 
933 937 
933 940 
933 1043 
934 938 
934 939 
934 1044 
935 937 
935 939 
935 1133 
936 938 
936 940 
936 1134 
941 947 
941 948 
942 949 
942 950 
943 947 
943 950 
944 948 
944 949 
945 947 
945 949 
945 973 
946 948 
946 950 
946 974 
951 957 
951 958 
952 959 
952 960 
953 957 
953 960 
954 958 
954 959 
955 957 
955 959 
955 1491 
956 958 
956 960 
956 1492 
961 967 
961 968 
962 969 
962 970 
963 967 
963 970 
963 1275 
964 968 
964 969 
964 1276 
965 967 
965 969 
965 1405 
966 968 
966 970 
966 1406 
971 977 
971 978 
972 979 
972 980 
973 977 
973 980 
974 978 
974 979 
975 977 
975 979 
975 1545 
976 978 
976 980 
976 1546 
981 987 
981 988 
982 989 
982 990 
983 987 
983 990 
984 988 
984 989 
985 987 
985 989 
985 1385 
986 988 
986 990 
986 1386 
991 997 
991 998 
992 999 
992 1000 
993 997 
993 1000 
994 998 
994 999 
995 997 
995 999 
995 1135 
996 998 
996 1000 
996 1136 
1001 1007 
1001 1008 
1002 1009 
1002 1010 
1003 1007 
1003 1010 
1004 1008 
1004 1009 
1005 1007 
1005 1009 
1005 1113 
1006 1008 
1006 1010 
1006 1114 
1011 1017 
1011 1018 
1012 1019 
1012 1020 
1013 1017 
1013 1020 
1014 1018 
1014 1019 
1015 1017 
1015 1019 
1015 1605 
1016 1018 
1016 1020 
1016 1606 
1021 1027 
1021 1028 
1022 1029 
1022 1030 
1023 1027 
1023 1030 
1024 1028 
1024 1029 
1025 1027 
1025 1029 
1025 1173 
1026 1028 
1026 1030 
1026 1174 
1031 1037 
1031 1038 
1032 1039 
1032 1040 
1033 1037 
1033 1040 
1034 1038 
1034 1039 
1035 1037 
1035 1039 
1035 1513 
1036 1038 
1036 1040 
1036 1514 
1041 1047 
1041 1048 
1042 1049 
1042 1050 
1043 1047 
1043 1050 
1044 1048 
1044 1049 
1045 1047 
1045 1049 
1045 1231 
1046 1048 
1046 1050 
1046 1232 
1051 1057 
1051 1058 
1052 1059 
1052 1060 
1053 1057 
1053 1060 
1054 1058 
1054 1059 
1055 1057 
1055 1059 
1055 1093 
1056 1058 
1056 1060 
1056 1094 
1061 1067 
1061 1068 
1062 1069 
1062 1070 
1063 1067 
1063 1070 
1063 1493 
1064 1068 
1064 1069 
1064 1494 
1065 1067 
1065 1069 
1065 1633 
1066 1068 
1066 1070 
1066 1634 
1071 1077 
1071 1078 
1072 1079 
1072 1080 
1073 1077 
1073 1080 
1074 1078 
1074 1079 
1075 1077 
1075 1079 
1076 1078 
1076 1080 
1081 1087 
1081 1088 
1082 1089 
1082 1090 
1083 1087 
1083 1090 
1083 1215 
1084 1088 
1084 1089 
1084 1216 
1085 1087 
1085 1089 
1085 1413 
1086 1088 
1086 1090 
1086 1414 
1091 1097 
1091 1098 
1092 1099 
1092 1100 
1093 1097 
1093 1100 
1094 1098 
1094 1099 
1095 1097 
1095 1099 
1095 1175 
1096 1098 
1096 1100 
1096 1176 
1101 1107 
1101 1108 
1102 1109 
1102 1110 
1103 1107 
1103 1110 
1103 1163 
1104 1108 
1104 1109 
1104 1164 
1105 1107 
1105 1109 
1105 1193 
1106 1108 
1106 1110 
1106 1194 
1111 1117 
1111 1118 
1112 1119 
1112 1120 
1113 1117 
1113 1120 
1114 1118 
1114 1119 
1115 1117 
1115 1119 
1115 1155 
1116 1118 
1116 1120 
1116 1156 
1121 1127 
1121 1128 
1122 1129 
1122 1130 
1123 1127 
1123 1130 
1124 1128 
1124 1129 
1125 1127 
1125 1129 
1125 1713 
1126 1128 
1126 1130 
1126 1714 
1131 1137 
1131 1138 
1132 1139 
1132 1140 
1133 1137 
1133 1140 
1134 1138 
1134 1139 
1135 1137 
1135 1139 
1136 1138 
1136 1140 
1141 1147 
1141 1148 
1142 1149 
1142 1150 
1143 1147 
1143 1150 
1143 1355 
1144 1148 
1144 1149 
1144 1356 
1145 1147 
1145 1149 
1145 1655 
1146 1148 
1146 1150 
1146 1656 
1151 1157 
1151 1158 
1152 1159 
1152 1160 
1153 1157 
1153 1160 
1154 1158 
1154 1159 
1155 1157 
1155 1159 
1156 1158 
1156 1160 
1161 1167 
1161 1168 
1162 1169 
1162 1170 
1163 1167 
1163 1170 
1164 1168 
1164 1169 
1165 1167 
1165 1169 
1165 1283 
1166 1168 
1166 1170 
1166 1284 
1171 1177 
1171 1178 
1172 1179 
1172 1180 
1173 1177 
1173 1180 
1174 1178 
1174 1179 
1175 1177 
1175 1179 
1176 1178 
1176 1180 
1181 1187 
1181 1188 
1182 1189 
1182 1190 
1183 1187 
1183 1190 
1183 1233 
1184 1188 
1184 1189 
1184 1234 
1185 1187 
1185 1189 
1185 1443 
1186 1188 
1186 1190 
1186 1444 
1191 1197 
1191 1198 
1192 1199 
1192 1200 
1193 1197 
1193 1200 
1194 1198 
1194 1199 
1195 1197 
1195 1199 
1195 1683 
1196 1198 
1196 1200 
1196 1684 
1201 1207 
1201 1208 
1202 1209 
1202 1210 
1203 1207 
1203 1210 
1204 1208 
1204 1209 
1205 1207 
1205 1209 
1205 1455 
1206 1208 
1206 1210 
1206 1456 
1211 1217 
1211 1218 
1212 1219 
1212 1220 
1213 1217 
1213 1220 
1214 1218 
1214 1219 
1215 1217 
1215 1219 
1216 1218 
1216 1220 
1221 1227 
1221 1228 
1222 1229 
1222 1230 
1223 1227 
1223 1230 
1224 1228 
1224 1229 
1225 1227 
1225 1229 
1225 1693 
1226 1228 
1226 1230 
1226 1694 
1231 1237 
1231 1238 
1232 1239 
1232 1240 
1233 1237 
1233 1240 
1234 1238 
1234 1239 
1235 1237 
1235 1239 
1235 1705 
1236 1238 
1236 1240 
1236 1706 
1241 1247 
1241 1248 
1242 1249 
1242 1250 
1243 1247 
1243 1250 
1244 1248 
1244 1249 
1245 1247 
1245 1249 
1245 1253 
1246 1248 
1246 1250 
1246 1254 
1251 1257 
1251 1258 
1252 1259 
1252 1260 
1253 1257 
1253 1260 
1254 1258 
1254 1259 
1255 1257 
1255 1259 
1255 1445 
1256 1258 
1256 1260 
1256 1446 
1261 1267 
1261 1268 
1262 1269 
1262 1270 
1263 1267 
1263 1270 
1264 1268 
1264 1269 
1265 1267 
1265 1269 
1265 1333 
1266 1268 
1266 1270 
1266 1334 
1271 1277 
1271 1278 
1272 1279 
1272 1280 
1273 1277 
1273 1280 
1274 1278 
1274 1279 
1275 1277 
1275 1279 
1276 1278 
1276 1280 
1281 1287 
1281 1288 
1282 1289 
1282 1290 
1283 1287 
1283 1290 
1284 1288 
1284 1289 
1285 1287 
1285 1289 
1285 1365 
1286 1288 
1286 1290 
1286 1366 
1291 1297 
1291 1298 
1292 1299 
1292 1300 
1293 1297 
1293 1300 
1294 1298 
1294 1299 
1295 1297 
1295 1299 
1295 1473 
1296 1298 
1296 1300 
1296 1474 
1301 1307 
1301 1308 
1302 1309 
1302 1310 
1303 1307 
1303 1310 
1304 1308 
1304 1309 
1305 1307 
1305 1309 
1305 1535 
1306 1308 
1306 1310 
1306 1536 
1311 1317 
1311 1318 
1312 1319 
1312 1320 
1313 1317 
1313 1320 
1314 1318 
1314 1319 
1315 1317 
1315 1319 
1316 1318 
1316 1320 
1321 1327 
1321 1328 
1322 1329 
1322 1330 
1323 1327 
1323 1330 
1324 1328 
1324 1329 
1325 1327 
1325 1329 
1325 1503 
1326 1328 
1326 1330 
1326 1504 
1331 1337 
1331 1338 
1332 1339 
1332 1340 
1333 1337 
1333 1340 
1334 1338 
1334 1339 
1335 1337 
1335 1339 
1335 1623 
1336 1338 
1336 1340 
1336 1624 
1341 1347 
1341 1348 
1342 1349 
1342 1350 
1343 1347 
1343 1350 
1344 1348 
1344 1349 
1345 1347 
1345 1349 
1345 1515 
1346 1348 
1346 1350 
1346 1516 
1351 1357 
1351 1358 
1352 1359 
1352 1360 
1353 1357 
1353 1360 
1354 1358 
1354 1359 
1355 1357 
1355 1359 
1356 1358 
1356 1360 
1361 1367 
1361 1368 
1362 1369 
1362 1370 
1363 1367 
1363 1370 
1364 1368 
1364 1369 
1365 1367 
1365 1369 
1366 1368 
1366 1370 
1371 1377 
1371 1378 
1372 1379 
1372 1380 
1373 1377 
1373 1380 
1374 1378 
1374 1379 
1375 1377 
1375 1379 
1375 1665 
1376 1378 
1376 1380 
1376 1666 
1381 1387 
1381 1388 
1382 1389 
1382 1390 
1383 1387 
1383 1390 
1384 1388 
1384 1389 
1385 1387 
1385 1389 
1386 1388 
1386 1390 
1391 1397 
1391 1398 
1392 1399 
1392 1400 
1393 1397 
1393 1400 
1394 1398 
1394 1399 
1395 1397 
1395 1399 
1395 1645 
1396 1398 
1396 1400 
1396 1646 
1401 1407 
1401 1408 
1402 1409 
1402 1410 
1403 1407 
1403 1410 
1404 1408 
1404 1409 
1405 1407 
1405 1409 
1406 1408 
1406 1410 
1411 1417 
1411 1418 
1412 1419 
1412 1420 
1413 1417 
1413 1420 
1414 1418 
1414 1419 
1415 1417 
1415 1419 
1415 1593 
1416 1418 
1416 1420 
1416 1594 
1421 1427 
1421 1428 
1422 1429 
1422 1430 
1423 1427 
1423 1430 
1424 1428 
1424 1429 
1425 1427 
1425 1429 
1425 1625 
1426 1428 
1426 1430 
1426 1626 
1431 1437 
1431 1438 
1432 1439 
1432 1440 
1433 1437 
1433 1440 
1434 1438 
1434 1439 
1435 1437 
1435 1439 
1436 1438 
1436 1440 
1441 1447 
1441 1448 
1442 1449 
1442 1450 
1443 1447 
1443 1450 
1444 1448 
1444 1449 
1445 1447 
1445 1449 
1446 1448 
1446 1450 
1451 1457 
1451 1458 
1452 1459 
1452 1460 
1453 1457 
1453 1460 
1454 1458 
1454 1459 
1455 1457 
1455 1459 
1456 1458 
1456 1460 
1461 1467 
1461 1468 
1462 1469 
1462 1470 
1463 1467 
1463 1470 
1464 1468 
1464 1469 
1465 1467 
1465 1469 
1466 1468 
1466 1470 
1471 1477 
1471 1478 
1472 1479 
1472 1480 
1473 1477 
1473 1480 
1474 1478 
1474 1479 
1475 1477 
1475 1479 
1475 1565 
1476 1478 
1476 1480 
1476 1566 
1481 1487 
1481 1488 
1482 1489 
1482 1490 
1483 1487 
1483 1490 
1484 1488 
1484 1489 
1485 1487 
1485 1489 
1486 1488 
1486 1490 
1491 1497 
1491 1498 
1492 1499 
1492 1500 
1493 1497 
1493 1500 
1494 1498 
1494 1499 
1495 1497 
1495 1499 
1495 1635 
1496 1498 
1496 1500 
1496 1636 
1501 1507 
1501 1508 
1502 1509 
1502 1510 
1503 1507 
1503 1510 
1504 1508 
1504 1509 
1505 1507 
1505 1509 
1505 1555 
1506 1508 
1506 1510 
1506 1556 
1511 1517 
1511 1518 
1512 1519 
1512 1520 
1513 1517 
1513 1520 
1514 1518 
1514 1519 
1515 1517 
1515 1519 
1516 1518 
1516 1520 
1521 1527 
1521 1528 
1522 1529 
1522 1530 
1523 1527 
1523 1530 
1524 1528 
1524 1529 
1525 1527 
1525 1529 
1525 1715 
1526 1528 
1526 1530 
1526 1716 
1531 1537 
1531 1538 
1532 1539 
1532 1540 
1533 1537 
1533 1540 
1534 1538 
1534 1539 
1535 1537 
1535 1539 
1536 1538 
1536 1540 
1541 1547 
1541 1548 
1542 1549 
1542 1550 
1543 1547 
1543 1550 
1544 1548 
1544 1549 
1545 1547 
1545 1549 
1546 1548 
1546 1550 
1551 1557 
1551 1558 
1552 1559 
1552 1560 
1553 1557 
1553 1560 
1554 1558 
1554 1559 
1555 1557 
1555 1559 
1556 1558 
1556 1560 
1561 1567 
1561 1568 
1562 1569 
1562 1570 
1563 1567 
1563 1570 
1564 1568 
1564 1569 
1565 1567 
1565 1569 
1566 1568 
1566 1570 
1571 1577 
1571 1578 
1572 1579 
1572 1580 
1573 1577 
1573 1580 
1574 1578 
1574 1579 
1575 1577 
1575 1579 
1576 1578 
1576 1580 
1581 1587 
1581 1588 
1582 1589 
1582 1590 
1583 1587 
1583 1590 
1584 1588 
1584 1589 
1585 1587 
1585 1589 
1586 1588 
1586 1590 
1591 1597 
1591 1598 
1592 1599 
1592 1600 
1593 1597 
1593 1600 
1594 1598 
1594 1599 
1595 1597 
1595 1599 
1595 1695 
1596 1598 
1596 1600 
1596 1696 
1601 1607 
1601 1608 
1602 1609 
1602 1610 
1603 1607 
1603 1610 
1604 1608 
1604 1609 
1605 1607 
1605 1609 
1606 1608 
1606 1610 
1611 1617 
1611 1618 
1612 1619 
1612 1620 
1613 1617 
1613 1620 
1614 1618 
1614 1619 
1615 1617 
1615 1619 
1615 1685 
1616 1618 
1616 1620 
1616 1686 
1621 1627 
1621 1628 
1622 1629 
1622 1630 
1623 1627 
1623 1630 
1624 1628 
1624 1629 
1625 1627 
1625 1629 
1626 1628 
1626 1630 
1631 1637 
1631 1638 
1632 1639 
1632 1640 
1633 1637 
1633 1640 
1634 1638 
1634 1639 
1635 1637 
1635 1639 
1636 1638 
1636 1640 
1641 1647 
1641 1648 
1642 1649 
1642 1650 
1643 1647 
1643 1650 
1644 1648 
1644 1649 
1645 1647 
1645 1649 
1646 1648 
1646 1650 
1651 1657 
1651 1658 
1652 1659 
1652 1660 
1653 1657 
1653 1660 
1654 1658 
1654 1659 
1655 1657 
1655 1659 
1656 1658 
1656 1660 
1661 1667 
1661 1668 
1662 1669 
1662 1670 
1663 1667 
1663 1670 
1664 1668 
1664 1669 
1665 1667 
1665 1669 
1666 1668 
1666 1670 
1671 1677 
1671 1678 
1672 1679 
1672 1680 
1673 1677 
1673 1680 
1674 1678 
1674 1679 
1675 1677 
1675 1679 
1676 1678 
1676 1680 
1681 1687 
1681 1688 
1682 1689 
1682 1690 
1683 1687 
1683 1690 
1684 1688 
1684 1689 
1685 1687 
1685 1689 
1686 1688 
1686 1690 
1691 1697 
1691 1698 
1692 1699 
1692 1700 
1693 1697 
1693 1700 
1694 1698 
1694 1699 
1695 1697 
1695 1699 
1696 1698 
1696 1700 
1701 1707 
1701 1708 
1702 1709 
1702 1710 
1703 1707 
1703 1710 
1704 1708 
1704 1709 
1705 1707 
1705 1709 
1706 1708 
1706 1710 
1711 1717 
1711 1718 
1712 1719 
1712 1720 
1713 1717 
1713 1720 
1714 1718 
1714 1719 
1715 1717 
1715 1719 
1716 1718 
1716 1720 
